50
    31    14    76    62     8    33    82    50    84    70     8    91    81     4    46    95    86     2     3    14    50    25     3    40    93    23    83     6    97    37    97    85    12    97    15    93    53    26    22    83   100    36    20    51   100    32    24    32    65     5
     7     4     2     9     8     1     9     1     7    10     9     6     3     3     3     6     5     8     5     6     2     1     6    10     3     6     1     7     6     3     8     6     8    10     2     1     8    10     1     6     2     6     9     7     8     8     4     3     2    10
  1866  2135   353  1722  1978  2683  1256  2076  2585  2509  2318  2470  1772  2535   636   398  2079  2688  1004  2092  1412  1510  2552  1980  2279  1897  1264  2467   269   932  1050   721   611   507  1608  1121  1764  2049  2165  2047  2212  2476  1546   999  1147  1145  1928   928   383   691
